p cnf 43 144
3 -1 0
3 -2 0
1 2 -3 0
1 4 -5 0
-1 -4 -5 0
1 -4 5 0
-1 4 5 0
-7 8 -9 0
7 -8 -9 0
-7 -8 9 0
7 8 9 0
-9 8 -10 0
9 -8 -10 0
-9 -8 10 0
9 8 10 0
6 -10 -11 0
-6 10 -11 0
6 10 11 0
-6 -10 11 0
12 5 0
12 11 0
-5 -11 -12 0
-13 12 0
-13 7 0
-12 -7 13 0
14 -3 0
14 -13 0
3 13 -14 0
15 -7 0
15 -9 0
7 9 -15 0
-12 17 0
12 17 0
-18 16 0
-18 -17 0
-16 17 18 0
-15 18 -19 0
15 -18 -19 0
-15 -18 19 0
15 18 19 0
20 3 0
20 7 0
-3 -7 -20 0
21 19 0
21 -20 0
-19 20 -21 0
22 -14 0
22 21 0
14 -21 -22 0
24 23 0
24 4 0
-23 -4 -24 0
-22 24 -25 0
22 -24 -25 0
-22 -24 25 0
22 24 25 0
9 16 -26 0
-9 -16 -26 0
9 -16 26 0
-9 16 26 0
27 -2 0
27 -26 0
2 26 -27 0
28 -25 0
28 -27 0
25 27 -28 0
9 30 0
-9 30 0
-29 -30 -31 0
29 30 -31 0
-29 30 31 0
29 -30 31 0
32 28 0
32 31 0
-28 -31 -32 0
-5 -11 -33 0
5 11 -33 0
-5 11 33 0
5 -11 33 0
-23 33 -34 0
23 -33 -34 0
-23 -33 34 0
23 33 34 0
35 19 0
35 -34 0
-19 34 -35 0
37 -36 0
37 -6 0
36 6 -37 0
-35 -37 -38 0
35 37 -38 0
-35 37 38 0
35 -37 38 0
39 32 0
39 38 0
-32 -38 -39 0
40 -11 0
40 -30 0
11 30 -40 0
-41 20 0
-41 -7 0
-20 7 41 0
-40 41 -42 0
40 -41 -42 0
-40 -41 42 0
40 41 42 0
-39 -42 -43 0
39 42 -43 0
-39 42 43 0
39 -42 43 0
-42 9 0
-38 -25 4 30 3 0
-40 5 29 0
-8 -43 -36 23 0
-36 22 11 35 43 -9 0
16 12 -42 0
-3 -15 2 0
-15 -1 36 0
30 38 -16 -14 -42 0
21 16 0
-12 1 0
-23 24 -15 0
-5 24 39 -31 3 0
-25 -16 0
-39 36 0
-13 -42 -18 0
36 9 -19 -22 0
-31 14 27 22 0
-24 -7 -33 16 0
-38 11 43 20 25 0
19 -33 -34 0
39 -9 23 -37 -1 0
-17 -25 -27 -35 -6 0
-18 -10 0
27 22 -33 0
-38 -7 -35 -5 0
2 -41 16 -4 39 32 0
-9 35 0
-29 -27 6 -35 0
-15 28 42 0
-34 -32 -36 23 0
31 16 0
24 27 35 -9 0
43 0
